32 16
12 696
11 979
7 164
4 825
1 755
1 286
5 725
10 801
1 965
6 683
13 470
5 264
13 954
3 564
10 899
9 335
8 413
9 879
2 36
15 471
3 584
15 573
9 858
6 193
5 657
3 222
4 846
8 797
8 287
3 709
10 728
4 200
